language Essence 1.3

letting class be function(1 --> 2, 2 --> 2, 3 --> 2, 4 --> 3, 5 --> 1)
letting deck_length be 57
letting deck_width be 7
letting length be function(1 --> 2, 2 --> 26, 3 --> 3, 4 --> 31, 5 --> 1)
letting n_classes be 3
letting n_containers be 5
letting separation be function({1, 2} --> 52, {2, 3} --> 46)
letting width be function(1 --> 3, 2 --> 6, 3 --> 3, 4 --> 2, 5 --> 1)
